(set-logic ALL)
(declare-fun seed0_endWord () String)
(declare-fun seed0_beginWord () String)
(assert (and (or (and (and (and (and (and (and (and (and (and (and (and (and (and (and (and (and (and (and (and (= (ite (= seed0_endWord (str.++ (str.++ (str.substr seed0_beginWord 0 (- 1 0)) "o") (str.substr seed0_beginWord 2 (- (str.len seed0_beginWord) 2)))) 1 0) 0) (= (ite (<= (str.len seed0_beginWord) 0) 1 0) 0)) (= (ite (<= (str.len seed0_beginWord) 0) 1 0) 0)) (= (ite (<= (str.len seed0_beginWord) 0) 1 0) 0)) (= (ite (<= (str.len seed0_beginWord) 0) 1 0) 0)) (= (ite (<= (str.len seed0_beginWord) 0) 1 0) 0)) (= (ite (<= (str.len seed0_beginWord) 0) 1 0) 0)) (= (ite (<= (str.len seed0_beginWord) 0) 1 0) 0)) (= (ite (<= (str.len seed0_beginWord) 0) 1 0) 0)) (= (ite (<= (str.len seed0_beginWord) 0) 1 0) 0)) (= (ite (<= (str.len seed0_beginWord) 0) 1 0) 0)) (= (ite (<= (str.len seed0_beginWord) 0) 1 0) 0)) (= (ite (<= (str.len seed0_beginWord) 0) 1 0) 0)) (= (ite (<= (str.len seed0_beginWord) 0) 1 0) 0)) (= (ite (<= (str.len seed0_beginWord) 0) 1 0) 0)) (= (ite (<= (str.len seed0_beginWord) 0) 1 0) 0)) (not (= (ite (= seed0_endWord "hot") 1 0) 0))) (>= 0 0)) (>= (- 1 0) 0)) (>= 2 0)) (str.<= (str.++ seed0_beginWord "85") (str.++ seed0_beginWord ""))) (or (>= (- (str.len seed0_beginWord) 2) 0) (str.contains (str.++ seed0_endWord "nbJhty") (str.++ seed0_endWord "Lk2MfUrXZQysPwvu")))))
(check-sat)
(exit)